Maximize
  - 3.64994276777 edge_0_1_0_0 - 2.9437568602563 edge_0_2_0_0
   - 2.0482480381616 edge_0_3_0_0 - 2.947028759981 edge_0_5_0_0
   - 2.4203230130975 edge_0_6_0_0 - 1.958247716778 edge_0_10_0_0
   - 2.860773737855999 edge_0_14_0_0 - 2.2302948646524 edge_0_17_0_0
   - 0.4203247319986932 edge_1_2_0_0 - 0.7806765337475673 edge_1_3_0_0
   - 1.016035364927441 edge_1_5_0_0 - 1.153470967905804 edge_1_6_0_0
   - 0.2240138391860396 edge_1_15_0_0 - 0.5419963398373184 edge_1_18_0_0
   - 0.5209414735800347 edge_2_1_0_0 - 0.4320413067131536 edge_2_5_0_0
   - 0.1924198435794217 edge_2_6_0_0 - 0.5255426594719319 edge_2_9_0_0
   - 0.9722258156177291 edge_2_16_0_0 - 0.0513797634338082 edge_3_1_0_0
   + 2.811741201875284 edge_3_2_0_0 + 0.2725733207845103 edge_3_5_0_0
   + 2.092704444483671 edge_3_6_0_0 + 0.0906116773996036 edge_3_9_0_0
   + 0.7489515224019656 edge_3_10_0_0 + 0.4519792111945115 edge_3_14_0_0
   + 1.228123510715211 edge_3_15_0_0 - 0.1826397577103659 edge_3_16_0_0
   + 0.1309820299749877 edge_3_17_0_0 + 1.706407901494657 edge_3_18_0_0
   - 0.1047249134882602 edge_5_2_0_0 + 0.1348588001498476 edge_5_3_0_0
   + 0.8728689289861534 edge_5_6_0_0 - 0.4434149516135151 edge_5_9_0_0
   - 0.5300809010695301 edge_5_10_0_0 - 0.8102672690701643 edge_6_1_0_0
   + 0.4917494075899992 edge_6_2_0_0 + 0.3037698388825306 edge_6_3_0_0
   + 2.865154345809337 edge_6_5_0_0 + 0.1267298901954288 edge_6_9_0_0
   + 0.9130314354811827 edge_6_10_0_0 + 0.4352301516356797 edge_6_14_0_0
   + 1.001181942410671 edge_6_15_0_0 + 0.0148878109723987 edge_6_16_0_0
   + 0.3689373056364444 edge_6_17_0_0 + 1.136755904067844 edge_6_18_0_0
   + 0.3479897566493107 edge_9_10_0_0 - 0.4608015120337562 edge_9_14_0_0
   + 0.0571059441917168 edge_9_15_0_0 - 0.2130981938558484 edge_9_16_0_0
   - 0.219275164031537 edge_9_17_0_0 - 0.3214675387779842 edge_9_18_0_0
   - 0.8699394351062486 edge_10_1_0_0 - 0.5884605553767738 edge_10_2_0_0
   - 0.6835240901824412 edge_10_3_0_0 + 0.711177230904075 edge_10_5_0_0
   + 0.0606357380458823 edge_10_6_0_0 + 0.9718080053079607 edge_10_9_0_0
   + 1.138966057828405 edge_10_14_0_0 + 1.124663298366273 edge_10_15_0_0
   + 0.1613709651655776 edge_10_16_0_0 + 0.5123967898344677 edge_10_17_0_0
   + 0.8223637057584829 edge_10_18_0_0 - 0.6011639351139837 edge_14_1_0_0
   - 0.1130983693989977 edge_14_2_0_0 + 0.00314618274379407 edge_14_3_0_0
   + 0.7705660037718273 edge_14_5_0_0 + 0.492989977360462 edge_14_6_0_0
   + 0.8306428671457785 edge_14_9_0_0 + 0.6999430883513024 edge_14_10_0_0
   + 1.193570119402318 edge_14_15_0_0 + 1.510582878163177 edge_14_16_0_0
   + 3.018574815223111 edge_14_17_0_0 + 1.566993656103681 edge_14_18_0_0
   - 0.272072401910005 edge_15_9_0_0 - 0.5158099493417085 edge_15_10_0_0
   - 0.2989645056273637 edge_15_14_0_0 - 0.1797108100301272 edge_15_16_0_0
   + 0.2248072417064957 edge_15_17_0_0 + 0.0905901830875519 edge_16_14_0_0
   + 0.3633206157455397 edge_16_15_0_0 + 0.7853136062510538 edge_16_17_0_0
   - 0.1145663790370772 edge_16_18_0_0 - 1.337903886176071 edge_17_1_0_0
   - 0.9829581157134384 edge_17_2_0_0 - 0.1104595828435389 edge_17_3_0_0
   - 0.449456025246249 edge_17_5_0_0 - 0.1532798364014078 edge_17_6_0_0
   + 0.1080023907234271 edge_17_9_0_0 - 0.2118066311768485 edge_17_10_0_0
   + 0.3447465436591441 edge_17_15_0_0 + 1.87367999153267 edge_17_16_0_0
   + 0.4208040548831339 edge_17_18_0_0 - 1.490624452641905 edge_18_14_0_0
   - 1.400864117428565 edge_18_16_0_0 - 1.60236148481264 edge_18_17_0_0
Subject To
 one_parent_1: edge_0_1_0_0 + edge_2_1_0_0 + edge_3_1_0_0 + edge_6_1_0_0
   + edge_10_1_0_0 + edge_14_1_0_0 + edge_17_1_0_0 = 1
 consume_one_flow_unit_1: flow_0_1_0_0 - flow_1_2_0_0 - flow_1_3_0_0
   - flow_1_5_0_0 - flow_1_6_0_0 - flow_1_15_0_0 - flow_1_18_0_0
   + flow_2_1_0_0 + flow_3_1_0_0 + flow_6_1_0_0 + flow_10_1_0_0
   + flow_14_1_0_0 + flow_17_1_0_0 = 1
 one_parent_2: edge_0_2_0_0 + edge_1_2_0_0 + edge_3_2_0_0 + edge_5_2_0_0
   + edge_6_2_0_0 + edge_10_2_0_0 + edge_14_2_0_0 + edge_17_2_0_0 = 1
 consume_one_flow_unit_2: flow_0_2_0_0 + flow_1_2_0_0 - flow_2_1_0_0
   - flow_2_5_0_0 - flow_2_6_0_0 - flow_2_9_0_0 - flow_2_16_0_0
   + flow_3_2_0_0 + flow_5_2_0_0 + flow_6_2_0_0 + flow_10_2_0_0
   + flow_14_2_0_0 + flow_17_2_0_0 = 1
 one_parent_3: edge_0_3_0_0 + edge_1_3_0_0 + edge_5_3_0_0 + edge_6_3_0_0
   + edge_10_3_0_0 + edge_14_3_0_0 + edge_17_3_0_0 = 1
 consume_one_flow_unit_3: flow_0_3_0_0 + flow_1_3_0_0 - flow_3_1_0_0
   - flow_3_2_0_0 - flow_3_5_0_0 - flow_3_6_0_0 - flow_3_9_0_0
   - flow_3_10_0_0 - flow_3_14_0_0 - flow_3_15_0_0 - flow_3_16_0_0
   - flow_3_17_0_0 - flow_3_18_0_0 + flow_5_3_0_0 + flow_6_3_0_0
   + flow_10_3_0_0 + flow_14_3_0_0 + flow_17_3_0_0 = 1
 one_parent_4: = 1
 consume_one_flow_unit_4: = 1
 one_parent_5: edge_0_5_0_0 + edge_1_5_0_0 + edge_2_5_0_0 + edge_3_5_0_0
   + edge_6_5_0_0 + edge_10_5_0_0 + edge_14_5_0_0 + edge_17_5_0_0 = 1
 consume_one_flow_unit_5: flow_0_5_0_0 + flow_1_5_0_0 + flow_2_5_0_0
   + flow_3_5_0_0 - flow_5_2_0_0 - flow_5_3_0_0 - flow_5_6_0_0
   - flow_5_9_0_0 - flow_5_10_0_0 + flow_6_5_0_0 + flow_10_5_0_0
   + flow_14_5_0_0 + flow_17_5_0_0 = 1
 one_parent_6: edge_0_6_0_0 + edge_1_6_0_0 + edge_2_6_0_0 + edge_3_6_0_0
   + edge_5_6_0_0 + edge_10_6_0_0 + edge_14_6_0_0 + edge_17_6_0_0 = 1
 consume_one_flow_unit_6: flow_0_6_0_0 + flow_1_6_0_0 + flow_2_6_0_0
   + flow_3_6_0_0 + flow_5_6_0_0 - flow_6_1_0_0 - flow_6_2_0_0
   - flow_6_3_0_0 - flow_6_5_0_0 - flow_6_9_0_0 - flow_6_10_0_0
   - flow_6_14_0_0 - flow_6_15_0_0 - flow_6_16_0_0 - flow_6_17_0_0
   - flow_6_18_0_0 + flow_10_6_0_0 + flow_14_6_0_0 + flow_17_6_0_0 = 1
 one_parent_7: = 1
 consume_one_flow_unit_7: = 1
 one_parent_8: = 1
 consume_one_flow_unit_8: = 1
 one_parent_9: edge_2_9_0_0 + edge_3_9_0_0 + edge_5_9_0_0 + edge_6_9_0_0
   + edge_10_9_0_0 + edge_14_9_0_0 + edge_15_9_0_0 + edge_17_9_0_0 = 1
 consume_one_flow_unit_9: flow_2_9_0_0 + flow_3_9_0_0 + flow_5_9_0_0
   + flow_6_9_0_0 - flow_9_10_0_0 - flow_9_14_0_0 - flow_9_15_0_0
   - flow_9_16_0_0 - flow_9_17_0_0 - flow_9_18_0_0 + flow_10_9_0_0
   + flow_14_9_0_0 + flow_15_9_0_0 + flow_17_9_0_0 = 1
 one_parent_10: edge_0_10_0_0 + edge_3_10_0_0 + edge_5_10_0_0
   + edge_6_10_0_0 + edge_9_10_0_0 + edge_14_10_0_0 + edge_15_10_0_0
   + edge_17_10_0_0 = 1
 consume_one_flow_unit_10: flow_0_10_0_0 + flow_3_10_0_0 + flow_5_10_0_0
   + flow_6_10_0_0 + flow_9_10_0_0 - flow_10_1_0_0 - flow_10_2_0_0
   - flow_10_3_0_0 - flow_10_5_0_0 - flow_10_6_0_0 - flow_10_9_0_0
   - flow_10_14_0_0 - flow_10_15_0_0 - flow_10_16_0_0 - flow_10_17_0_0
   - flow_10_18_0_0 + flow_14_10_0_0 + flow_15_10_0_0 + flow_17_10_0_0 = 1
 one_parent_11: = 1
 consume_one_flow_unit_11: = 1
 one_parent_12: = 1
 consume_one_flow_unit_12: = 1
 one_parent_13: = 1
 consume_one_flow_unit_13: = 1
 one_parent_14: edge_0_14_0_0 + edge_3_14_0_0 + edge_6_14_0_0
   + edge_9_14_0_0 + edge_10_14_0_0 + edge_15_14_0_0 + edge_16_14_0_0
   + edge_18_14_0_0 = 1
 consume_one_flow_unit_14: flow_0_14_0_0 + flow_3_14_0_0 + flow_6_14_0_0
   + flow_9_14_0_0 + flow_10_14_0_0 - flow_14_1_0_0 - flow_14_2_0_0
   - flow_14_3_0_0 - flow_14_5_0_0 - flow_14_6_0_0 - flow_14_9_0_0
   - flow_14_10_0_0 - flow_14_15_0_0 - flow_14_16_0_0 - flow_14_17_0_0
   - flow_14_18_0_0 + flow_15_14_0_0 + flow_16_14_0_0 + flow_18_14_0_0 = 1
 one_parent_15: edge_1_15_0_0 + edge_3_15_0_0 + edge_6_15_0_0
   + edge_9_15_0_0 + edge_10_15_0_0 + edge_14_15_0_0 + edge_16_15_0_0
   + edge_17_15_0_0 = 1
 consume_one_flow_unit_15: flow_1_15_0_0 + flow_3_15_0_0 + flow_6_15_0_0
   + flow_9_15_0_0 + flow_10_15_0_0 + flow_14_15_0_0 - flow_15_9_0_0
   - flow_15_10_0_0 - flow_15_14_0_0 - flow_15_16_0_0 - flow_15_17_0_0
   + flow_16_15_0_0 + flow_17_15_0_0 = 1
 one_parent_16: edge_2_16_0_0 + edge_3_16_0_0 + edge_6_16_0_0
   + edge_9_16_0_0 + edge_10_16_0_0 + edge_14_16_0_0 + edge_15_16_0_0
   + edge_17_16_0_0 + edge_18_16_0_0 = 1
 consume_one_flow_unit_16: flow_2_16_0_0 + flow_3_16_0_0 + flow_6_16_0_0
   + flow_9_16_0_0 + flow_10_16_0_0 + flow_14_16_0_0 + flow_15_16_0_0
   - flow_16_14_0_0 - flow_16_15_0_0 - flow_16_17_0_0 - flow_16_18_0_0
   + flow_17_16_0_0 + flow_18_16_0_0 = 1
 one_parent_17: edge_0_17_0_0 + edge_3_17_0_0 + edge_6_17_0_0
   + edge_9_17_0_0 + edge_10_17_0_0 + edge_14_17_0_0 + edge_15_17_0_0
   + edge_16_17_0_0 + edge_18_17_0_0 = 1
 consume_one_flow_unit_17: flow_0_17_0_0 + flow_3_17_0_0 + flow_6_17_0_0
   + flow_9_17_0_0 + flow_10_17_0_0 + flow_14_17_0_0 + flow_15_17_0_0
   + flow_16_17_0_0 - flow_17_1_0_0 - flow_17_2_0_0 - flow_17_3_0_0
   - flow_17_5_0_0 - flow_17_6_0_0 - flow_17_9_0_0 - flow_17_10_0_0
   - flow_17_15_0_0 - flow_17_16_0_0 - flow_17_18_0_0 + flow_18_17_0_0 = 1
 one_parent_18: edge_1_18_0_0 + edge_3_18_0_0 + edge_6_18_0_0
   + edge_9_18_0_0 + edge_10_18_0_0 + edge_14_18_0_0 + edge_16_18_0_0
   + edge_17_18_0_0 = 1
 consume_one_flow_unit_18: flow_1_18_0_0 + flow_3_18_0_0 + flow_6_18_0_0
   + flow_9_18_0_0 + flow_10_18_0_0 + flow_14_18_0_0 + flow_16_18_0_0
   + flow_17_18_0_0 - flow_18_14_0_0 - flow_18_16_0_0 - flow_18_17_0_0 = 1
 root_flow: flow_0_1_0_0 + flow_0_2_0_0 + flow_0_3_0_0 + flow_0_5_0_0
   + flow_0_6_0_0 + flow_0_10_0_0 + flow_0_14_0_0 + flow_0_17_0_0 = 18
 inactive_no_flow_0_1_0_0: flow_0_1_0_0 - 1000 edge_0_1_0_0 <= 0
 inactive_no_flow_0_2_0_0: flow_0_2_0_0 - 1000 edge_0_2_0_0 <= 0
 inactive_no_flow_0_3_0_0: flow_0_3_0_0 - 1000 edge_0_3_0_0 <= 0
 inactive_no_flow_0_5_0_0: flow_0_5_0_0 - 1000 edge_0_5_0_0 <= 0
 inactive_no_flow_0_6_0_0: flow_0_6_0_0 - 1000 edge_0_6_0_0 <= 0
 inactive_no_flow_0_10_0_0: flow_0_10_0_0 - 1000 edge_0_10_0_0 <= 0
 inactive_no_flow_0_14_0_0: flow_0_14_0_0 - 1000 edge_0_14_0_0 <= 0
 inactive_no_flow_0_17_0_0: flow_0_17_0_0 - 1000 edge_0_17_0_0 <= 0
 inactive_no_flow_1_2_0_0: flow_1_2_0_0 - 1000 edge_1_2_0_0 <= 0
 inactive_no_flow_1_3_0_0: flow_1_3_0_0 - 1000 edge_1_3_0_0 <= 0
 inactive_no_flow_1_5_0_0: flow_1_5_0_0 - 1000 edge_1_5_0_0 <= 0
 inactive_no_flow_1_6_0_0: flow_1_6_0_0 - 1000 edge_1_6_0_0 <= 0
 inactive_no_flow_1_15_0_0: flow_1_15_0_0 - 1000 edge_1_15_0_0 <= 0
 inactive_no_flow_1_18_0_0: flow_1_18_0_0 - 1000 edge_1_18_0_0 <= 0
 inactive_no_flow_2_1_0_0: flow_2_1_0_0 - 1000 edge_2_1_0_0 <= 0
 inactive_no_flow_2_5_0_0: flow_2_5_0_0 - 1000 edge_2_5_0_0 <= 0
 inactive_no_flow_2_6_0_0: flow_2_6_0_0 - 1000 edge_2_6_0_0 <= 0
 inactive_no_flow_2_9_0_0: flow_2_9_0_0 - 1000 edge_2_9_0_0 <= 0
 inactive_no_flow_2_16_0_0: flow_2_16_0_0 - 1000 edge_2_16_0_0 <= 0
 inactive_no_flow_3_1_0_0: flow_3_1_0_0 - 1000 edge_3_1_0_0 <= 0
 inactive_no_flow_3_2_0_0: flow_3_2_0_0 - 1000 edge_3_2_0_0 <= 0
 inactive_no_flow_3_5_0_0: flow_3_5_0_0 - 1000 edge_3_5_0_0 <= 0
 inactive_no_flow_3_6_0_0: flow_3_6_0_0 - 1000 edge_3_6_0_0 <= 0
 inactive_no_flow_3_9_0_0: flow_3_9_0_0 - 1000 edge_3_9_0_0 <= 0
 inactive_no_flow_3_10_0_0: flow_3_10_0_0 - 1000 edge_3_10_0_0 <= 0
 inactive_no_flow_3_14_0_0: flow_3_14_0_0 - 1000 edge_3_14_0_0 <= 0
 inactive_no_flow_3_15_0_0: flow_3_15_0_0 - 1000 edge_3_15_0_0 <= 0
 inactive_no_flow_3_16_0_0: flow_3_16_0_0 - 1000 edge_3_16_0_0 <= 0
 inactive_no_flow_3_17_0_0: flow_3_17_0_0 - 1000 edge_3_17_0_0 <= 0
 inactive_no_flow_3_18_0_0: flow_3_18_0_0 - 1000 edge_3_18_0_0 <= 0
 inactive_no_flow_5_2_0_0: flow_5_2_0_0 - 1000 edge_5_2_0_0 <= 0
 inactive_no_flow_5_3_0_0: flow_5_3_0_0 - 1000 edge_5_3_0_0 <= 0
 inactive_no_flow_5_6_0_0: flow_5_6_0_0 - 1000 edge_5_6_0_0 <= 0
 inactive_no_flow_5_9_0_0: flow_5_9_0_0 - 1000 edge_5_9_0_0 <= 0
 inactive_no_flow_5_10_0_0: flow_5_10_0_0 - 1000 edge_5_10_0_0 <= 0
 inactive_no_flow_6_1_0_0: flow_6_1_0_0 - 1000 edge_6_1_0_0 <= 0
 inactive_no_flow_6_2_0_0: flow_6_2_0_0 - 1000 edge_6_2_0_0 <= 0
 inactive_no_flow_6_3_0_0: flow_6_3_0_0 - 1000 edge_6_3_0_0 <= 0
 inactive_no_flow_6_5_0_0: flow_6_5_0_0 - 1000 edge_6_5_0_0 <= 0
 inactive_no_flow_6_9_0_0: flow_6_9_0_0 - 1000 edge_6_9_0_0 <= 0
 inactive_no_flow_6_10_0_0: flow_6_10_0_0 - 1000 edge_6_10_0_0 <= 0
 inactive_no_flow_6_14_0_0: flow_6_14_0_0 - 1000 edge_6_14_0_0 <= 0
 inactive_no_flow_6_15_0_0: flow_6_15_0_0 - 1000 edge_6_15_0_0 <= 0
 inactive_no_flow_6_16_0_0: flow_6_16_0_0 - 1000 edge_6_16_0_0 <= 0
 inactive_no_flow_6_17_0_0: flow_6_17_0_0 - 1000 edge_6_17_0_0 <= 0
 inactive_no_flow_6_18_0_0: flow_6_18_0_0 - 1000 edge_6_18_0_0 <= 0
 inactive_no_flow_9_10_0_0: flow_9_10_0_0 - 1000 edge_9_10_0_0 <= 0
 inactive_no_flow_9_14_0_0: flow_9_14_0_0 - 1000 edge_9_14_0_0 <= 0
 inactive_no_flow_9_15_0_0: flow_9_15_0_0 - 1000 edge_9_15_0_0 <= 0
 inactive_no_flow_9_16_0_0: flow_9_16_0_0 - 1000 edge_9_16_0_0 <= 0
 inactive_no_flow_9_17_0_0: flow_9_17_0_0 - 1000 edge_9_17_0_0 <= 0
 inactive_no_flow_9_18_0_0: flow_9_18_0_0 - 1000 edge_9_18_0_0 <= 0
 inactive_no_flow_10_1_0_0: flow_10_1_0_0 - 1000 edge_10_1_0_0 <= 0
 inactive_no_flow_10_2_0_0: flow_10_2_0_0 - 1000 edge_10_2_0_0 <= 0
 inactive_no_flow_10_3_0_0: flow_10_3_0_0 - 1000 edge_10_3_0_0 <= 0
 inactive_no_flow_10_5_0_0: flow_10_5_0_0 - 1000 edge_10_5_0_0 <= 0
 inactive_no_flow_10_6_0_0: flow_10_6_0_0 - 1000 edge_10_6_0_0 <= 0
 inactive_no_flow_10_9_0_0: flow_10_9_0_0 - 1000 edge_10_9_0_0 <= 0
 inactive_no_flow_10_14_0_0: flow_10_14_0_0 - 1000 edge_10_14_0_0 <= 0
 inactive_no_flow_10_15_0_0: flow_10_15_0_0 - 1000 edge_10_15_0_0 <= 0
 inactive_no_flow_10_16_0_0: flow_10_16_0_0 - 1000 edge_10_16_0_0 <= 0
 inactive_no_flow_10_17_0_0: flow_10_17_0_0 - 1000 edge_10_17_0_0 <= 0
 inactive_no_flow_10_18_0_0: flow_10_18_0_0 - 1000 edge_10_18_0_0 <= 0
 inactive_no_flow_14_1_0_0: flow_14_1_0_0 - 1000 edge_14_1_0_0 <= 0
 inactive_no_flow_14_2_0_0: flow_14_2_0_0 - 1000 edge_14_2_0_0 <= 0
 inactive_no_flow_14_3_0_0: flow_14_3_0_0 - 1000 edge_14_3_0_0 <= 0
 inactive_no_flow_14_5_0_0: flow_14_5_0_0 - 1000 edge_14_5_0_0 <= 0
 inactive_no_flow_14_6_0_0: flow_14_6_0_0 - 1000 edge_14_6_0_0 <= 0
 inactive_no_flow_14_9_0_0: flow_14_9_0_0 - 1000 edge_14_9_0_0 <= 0
 inactive_no_flow_14_10_0_0: flow_14_10_0_0 - 1000 edge_14_10_0_0 <= 0
 inactive_no_flow_14_15_0_0: flow_14_15_0_0 - 1000 edge_14_15_0_0 <= 0
 inactive_no_flow_14_16_0_0: flow_14_16_0_0 - 1000 edge_14_16_0_0 <= 0
 inactive_no_flow_14_17_0_0: flow_14_17_0_0 - 1000 edge_14_17_0_0 <= 0
 inactive_no_flow_14_18_0_0: flow_14_18_0_0 - 1000 edge_14_18_0_0 <= 0
 inactive_no_flow_15_9_0_0: flow_15_9_0_0 - 1000 edge_15_9_0_0 <= 0
 inactive_no_flow_15_10_0_0: flow_15_10_0_0 - 1000 edge_15_10_0_0 <= 0
 inactive_no_flow_15_14_0_0: flow_15_14_0_0 - 1000 edge_15_14_0_0 <= 0
 inactive_no_flow_15_16_0_0: flow_15_16_0_0 - 1000 edge_15_16_0_0 <= 0
 inactive_no_flow_15_17_0_0: flow_15_17_0_0 - 1000 edge_15_17_0_0 <= 0
 inactive_no_flow_16_14_0_0: flow_16_14_0_0 - 1000 edge_16_14_0_0 <= 0
 inactive_no_flow_16_15_0_0: flow_16_15_0_0 - 1000 edge_16_15_0_0 <= 0
 inactive_no_flow_16_17_0_0: flow_16_17_0_0 - 1000 edge_16_17_0_0 <= 0
 inactive_no_flow_16_18_0_0: flow_16_18_0_0 - 1000 edge_16_18_0_0 <= 0
 inactive_no_flow_17_1_0_0: flow_17_1_0_0 - 1000 edge_17_1_0_0 <= 0
 inactive_no_flow_17_2_0_0: flow_17_2_0_0 - 1000 edge_17_2_0_0 <= 0
 inactive_no_flow_17_3_0_0: flow_17_3_0_0 - 1000 edge_17_3_0_0 <= 0
 inactive_no_flow_17_5_0_0: flow_17_5_0_0 - 1000 edge_17_5_0_0 <= 0
 inactive_no_flow_17_6_0_0: flow_17_6_0_0 - 1000 edge_17_6_0_0 <= 0
 inactive_no_flow_17_9_0_0: flow_17_9_0_0 - 1000 edge_17_9_0_0 <= 0
 inactive_no_flow_17_10_0_0: flow_17_10_0_0 - 1000 edge_17_10_0_0 <= 0
 inactive_no_flow_17_15_0_0: flow_17_15_0_0 - 1000 edge_17_15_0_0 <= 0
 inactive_no_flow_17_16_0_0: flow_17_16_0_0 - 1000 edge_17_16_0_0 <= 0
 inactive_no_flow_17_18_0_0: flow_17_18_0_0 - 1000 edge_17_18_0_0 <= 0
 inactive_no_flow_18_14_0_0: flow_18_14_0_0 - 1000 edge_18_14_0_0 <= 0
 inactive_no_flow_18_16_0_0: flow_18_16_0_0 - 1000 edge_18_16_0_0 <= 0
 inactive_no_flow_18_17_0_0: flow_18_17_0_0 - 1000 edge_18_17_0_0 <= 0
Bounds
Binaries
 edge_0_1_0_0 edge_0_2_0_0 edge_0_3_0_0 edge_0_5_0_0 edge_0_6_0_0
 edge_0_10_0_0 edge_0_14_0_0 edge_0_17_0_0 edge_1_2_0_0 edge_1_3_0_0
 edge_1_5_0_0 edge_1_6_0_0 edge_1_15_0_0 edge_1_18_0_0 edge_2_1_0_0
 edge_2_5_0_0 edge_2_6_0_0 edge_2_9_0_0 edge_2_16_0_0 edge_3_1_0_0
 edge_3_2_0_0 edge_3_5_0_0 edge_3_6_0_0 edge_3_9_0_0 edge_3_10_0_0
 edge_3_14_0_0 edge_3_15_0_0 edge_3_16_0_0 edge_3_17_0_0 edge_3_18_0_0
 edge_5_2_0_0 edge_5_3_0_0 edge_5_6_0_0 edge_5_9_0_0 edge_5_10_0_0
 edge_6_1_0_0 edge_6_2_0_0 edge_6_3_0_0 edge_6_5_0_0 edge_6_9_0_0
 edge_6_10_0_0 edge_6_14_0_0 edge_6_15_0_0 edge_6_16_0_0 edge_6_17_0_0
 edge_6_18_0_0 edge_9_10_0_0 edge_9_14_0_0 edge_9_15_0_0 edge_9_16_0_0
 edge_9_17_0_0 edge_9_18_0_0 edge_10_1_0_0 edge_10_2_0_0 edge_10_3_0_0
 edge_10_5_0_0 edge_10_6_0_0 edge_10_9_0_0 edge_10_14_0_0 edge_10_15_0_0
 edge_10_16_0_0 edge_10_17_0_0 edge_10_18_0_0 edge_14_1_0_0 edge_14_2_0_0
 edge_14_3_0_0 edge_14_5_0_0 edge_14_6_0_0 edge_14_9_0_0 edge_14_10_0_0
 edge_14_15_0_0 edge_14_16_0_0 edge_14_17_0_0 edge_14_18_0_0 edge_15_9_0_0
 edge_15_10_0_0 edge_15_14_0_0 edge_15_16_0_0 edge_15_17_0_0 edge_16_14_0_0
 edge_16_15_0_0 edge_16_17_0_0 edge_16_18_0_0 edge_17_1_0_0 edge_17_2_0_0
 edge_17_3_0_0 edge_17_5_0_0 edge_17_6_0_0 edge_17_9_0_0 edge_17_10_0_0
 edge_17_15_0_0 edge_17_16_0_0 edge_17_18_0_0 edge_18_14_0_0 edge_18_16_0_0
 edge_18_17_0_0
End
